(declare-fun temp10713_1 () (_ BitVec 64))
(declare-fun temp10713_2 () (_ BitVec 64))
(declare-fun var862434 () (_ BitVec 64))
(declare-fun k!0 () Bool)
(declare-fun ARGNAME_weight_NAMEEND_DIM () (_ BitVec 64))
(declare-fun temp10713_3 () (_ BitVec 64))
(declare-fun var862447 () (_ BitVec 64))
(declare-fun ARGNAME_input_NAMEEND_DIM () (_ BitVec 64))
(declare-fun var862470 () (_ BitVec 64))
(declare-fun temp10713_4 () (_ BitVec 64))
(declare-fun var862506 () (_ BitVec 64))
(declare-fun ARGNAME_stride_NAMEEND_LEN () (_ BitVec 64))
(declare-fun var862507 () (_ BitVec 64))
(declare-fun temp10713_5 () (_ BitVec 64))
(declare-fun var862530 () (_ BitVec 64))
(declare-fun ARGNAME_dilation_NAMEEND_LEN () (_ BitVec 64))
(declare-fun var862531 () (_ BitVec 64))
(declare-fun temp10713_6 () (_ BitVec 64))
(declare-fun temp10713_8 () (_ BitVec 64))
(declare-fun temp10713_7 () (_ BitVec 64))
(declare-fun var985269 () (_ BitVec 64))
(declare-fun temp10713_9 () (_ BitVec 64))
(declare-fun temp10713_10 () (_ BitVec 64))
(declare-fun var1050810 () (_ BitVec 64))
(declare-fun var1116357 () (_ BitVec 64))
(declare-fun var862603 () (_ BitVec 64))
(declare-fun var1640560 () (_ BitVec 64))
(declare-fun temp10713_12 () (_ BitVec 64))
(declare-fun temp10713_11 () (_ BitVec 64))
(declare-fun var1706164 () (_ BitVec 64))
(declare-fun var1706165 () (_ BitVec 64))
(declare-fun temp10713_13 () (_ BitVec 64))
(declare-fun temp10713_14 () (_ BitVec 64))
(declare-fun var1771706 () (_ BitVec 64))
(declare-fun var1837253 () (_ BitVec 64))
(declare-fun temp10713_15 () (_ BitVec 64))
(declare-fun var862645 () (_ BitVec 64))
(declare-fun temp10713_16 () (_ BitVec 64))
(declare-fun var862648 () (_ BitVec 64))
(declare-fun temp10713_17 () (_ BitVec 64))
(declare-fun temp10713_18 () (_ BitVec 64))
(declare-fun var862653 () (_ BitVec 64))
(declare-fun temp10713_19 () (_ BitVec 64))
(declare-fun temp10713_21 () (_ BitVec 64))
(declare-fun temp10713_20 () (_ BitVec 64))
(declare-fun var862768 () (_ BitVec 64))
(declare-fun temp10713_22 () (_ BitVec 64))
(declare-fun var862769 () (_ BitVec 64))
(declare-fun temp10713_24 () (_ BitVec 64))
(declare-fun temp10713_23 () (_ BitVec 64))
(declare-fun var862777 () (_ BitVec 64))
(declare-fun var2361456 () (_ BitVec 64))
(declare-fun temp10713_26 () (_ BitVec 64))
(declare-fun temp10713_25 () (_ BitVec 64))
(declare-fun var2427060 () (_ BitVec 64))
(declare-fun var2427061 () (_ BitVec 64))
(declare-fun temp10713_27 () (_ BitVec 64))
(declare-fun temp10713_28 () (_ BitVec 64))
(declare-fun var2492602 () (_ BitVec 64))
(declare-fun var2558149 () (_ BitVec 64))
(declare-fun var862825 () (_ BitVec 64))
(declare-fun var862860 () (_ BitVec 64))
(declare-fun temp10713_30 () (_ BitVec 64))
(declare-fun temp10713_29 () (_ BitVec 64))
(declare-fun temp10713_31 () (_ BitVec 64))
(declare-fun var3091838 () (_ BitVec 64))
(declare-fun var3225305 () (_ BitVec 64))
(declare-fun var3225567 () (_ BitVec 64))
(declare-fun temp10713_32 () (_ BitVec 64))
(declare-fun var3225596 () (_ BitVec 64))
(declare-fun temp10713_33 () (_ BitVec 64))
(declare-fun var3225597 () (_ BitVec 64))
(declare-fun temp10713_34 () (_ BitVec 64))
(declare-fun temp10713_35 () (_ BitVec 64))
(declare-fun ARGNAME_groups_NAMEEND () (_ BitVec 64))
(declare-fun var3225642 () (_ BitVec 64))
(declare-fun temp10713_36 () (_ BitVec 64))
(declare-fun temp10713_37 () (_ BitVec 64))
(declare-fun var3225714 () (_ BitVec 64))
(declare-fun temp10713_38 () (_ BitVec 64))
(declare-fun temp10713_39 () (_ BitVec 64))
(declare-fun var3225844 () (_ BitVec 64))
(declare-fun var4076009 () (_ BitVec 64))
(declare-fun temp10713_40 () (_ BitVec 64))
(declare-fun var4339331 () (_ BitVec 64))
(declare-fun temp10713_42 () (_ BitVec 64))
(declare-fun temp10713_41 () (_ BitVec 64))
(declare-fun temp10713_43 () (_ BitVec 64))
(assert (= temp10713_1 #x0000000000000003))
(assert (= var862434
   (ite (bvslt ARGNAME_weight_NAMEEND_DIM temp10713_1)
        #x0000000000000001
        #x0000000000000000)))
(assert (= temp10713_2 #x0000000000000000))
(assert (= var862434 temp10713_2))
(assert (= temp10713_3 #xfffffffffffffffe))
(assert (= var862447 (bvadd ARGNAME_weight_NAMEEND_DIM temp10713_3)))
(assert (= var862470
   (ite (= ARGNAME_weight_NAMEEND_DIM ARGNAME_input_NAMEEND_DIM)
        #x0000000000000001
        #x0000000000000000)))
(assert (= temp10713_4 #x0000000000000001))
(assert (= var862470 temp10713_4))
(assert (= var862506 var862447))
(assert (= var862507
   (ite (= ARGNAME_stride_NAMEEND_LEN var862506)
        #x0000000000000001
        #x0000000000000000)))
(assert (= temp10713_5 #x0000000000000001))
(assert (= var862507 temp10713_5))
(assert (= var862530 var862447))
(assert (= var862531
   (ite (= ARGNAME_dilation_NAMEEND_LEN var862530)
        #x0000000000000001
        #x0000000000000000)))
(assert (= temp10713_6 #x0000000000000001))
(assert (= var862531 temp10713_6))
(assert (= temp10713_8 #x0000000000000000))
(assert (= temp10713_7 temp10713_8))
(assert (= var985269
   (ite (bvslt temp10713_7 ARGNAME_stride_NAMEEND_LEN)
        #x0000000000000001
        #x0000000000000000)))
(assert (= temp10713_9
   (ite (= var985269 #x0000000000000001) ARGNAME_stride_NAMEEND_LEN temp10713_7)))
(assert (= temp10713_10 #x0000000000000000))
(assert (= var1050810 temp10713_10))
(assert (= var1116357 var1050810))
(assert (= var862603 var862447))
(assert (= var1640560 var862603))
(assert (= temp10713_12 #x0000000000000000))
(assert (= temp10713_11 temp10713_12))
(assert (= var1706164 var1640560))
(assert (= var1706165
   (ite (bvslt temp10713_11 var1706164) #x0000000000000001 #x0000000000000000)))
(assert (= temp10713_13 (ite (= var1706165 #x0000000000000001) var1640560 temp10713_11)))
(assert (= temp10713_14 #x0000000000000000))
(assert (= var1771706 temp10713_14))
(assert (= var1837253 var1771706))
(assert (= temp10713_15 #x0000000000000001))
(assert (= var862645 temp10713_15))
(assert (= temp10713_16 #x0000000000000001))
(assert (= var862648
   (ite (= ARGNAME_stride_NAMEEND_LEN temp10713_16)
        #x0000000000000001
        #x0000000000000000)))
(assert (= temp10713_17 #x0000000000000000))
(assert (= temp10713_18 #x0000000000000001))
(assert (= var862653
   (ite (= ARGNAME_dilation_NAMEEND_LEN temp10713_18)
        #x0000000000000001
        #x0000000000000000)))
(assert (= temp10713_19 #x0000000000000000))
(assert (= temp10713_21 #x0000000000000380))
(assert (= temp10713_20 temp10713_21))
(assert (= var862768 var862447))
(assert (= temp10713_22 #x0000000000000001))
(assert (= var862769 (bvshl var862768 temp10713_22)))
(assert (= temp10713_24 #x0000000000000000))
(assert (= temp10713_23 temp10713_24))
(assert (= var862777 var862447))
(assert (= var2361456 var862777))
(assert (= temp10713_26 #x0000000000000000))
(assert (= temp10713_25 temp10713_26))
(assert (= var2427060 var2361456))
(assert (= var2427061
   (ite (bvslt temp10713_25 var2427060) #x0000000000000001 #x0000000000000000)))
(assert (= temp10713_27 (ite (= var2427061 #x0000000000000001) var2361456 temp10713_25)))
(assert (= temp10713_28 #x0000000000000000))
(assert (= var2492602 temp10713_28))
(assert (= var2558149 var2492602))
(assert (= var862825 var862447))
(assert (= var862860 var862447))
(assert (= temp10713_30 #x0000000000000000))
(assert (= temp10713_29 temp10713_30))
(assert (= temp10713_31 #x0000000000000000))
(assert (= var3091838 temp10713_31))
(assert (= var3225305 var3091838))
(assert (= var3225567 var3225305))
(assert (= temp10713_32 #xfffffffffffffffe))
(assert (= var3225596 (bvadd ARGNAME_weight_NAMEEND_DIM temp10713_32)))
(assert (= temp10713_33 #x0000000000000003))
(assert (= var3225597
   (ite (bvslt ARGNAME_weight_NAMEEND_DIM temp10713_33)
        #x0000000000000001
        #x0000000000000000)))
(assert (= temp10713_34 #x0000000000000000))
(assert (= var3225597 temp10713_34))
(assert (= temp10713_35 #x0000000000000001))
(assert (= var3225642
   (ite (bvslt ARGNAME_groups_NAMEEND temp10713_35)
        #x0000000000000001
        #x0000000000000000)))
(assert (= temp10713_36 #x0000000000000000))
(assert (= var3225642 temp10713_36))
(assert (= ARGNAME_stride_NAMEEND_LEN var3225596))
(assert (= ARGNAME_dilation_NAMEEND_LEN var3225596))
(assert (= temp10713_37 #x0000000000000003))
(assert (= var3225714
   (ite (= ARGNAME_weight_NAMEEND_DIM temp10713_37)
        #x0000000000000001
        #x0000000000000000)))
(assert (= temp10713_38 #x0000000000000000))
(assert (= var3225714 temp10713_38))
(assert (= temp10713_39 #x0000000000000001))
(assert (= var3225844 temp10713_39))
(assert (= var4076009 var3225844))
(assert (= temp10713_40 #x0000000000000002))
(assert (= var4339331 temp10713_40))
(assert (= temp10713_42 #xffffffffffffffff))
(assert (= temp10713_41 temp10713_42))
(assert (= temp10713_43 #x0000000000000000))
(assert (= var3225714 temp10713_43))
(model-add temp10713_1 () (_ BitVec 64) #x0000000000000003)
(model-add temp10713_2 () (_ BitVec 64) #x0000000000000000)
(model-add var862434 () (_ BitVec 64) #x0000000000000000)
(model-del k!0)
(model-add ARGNAME_weight_NAMEEND_DIM
           ()
           (_ BitVec 64)
           (ite (or k!0 (= #x0000000000000003 #x8000000000000000))
                #x0000000000000003
                (bvsub #x0000000000000003 #x0000000000000001)))




